data/solutions/recovery/wellformed/moderate/flexible/wellformed_moderate_instance89/46.sol
Elapsed time: 14.82
Upper bound: 7236.0
Planning weighted value: 466343.0
C[0]=7236.0
C[1]=7232.0
C[2]=7231.0
C[3]=7229.0
C[4]=7218.0
C[5]=7217.0
y[0]=0
y[1]=5
y[2]=2
y[3]=4
y[4]=3
y[5]=1
y[6]=2
y[7]=5
y[8]=0
y[9]=0
y[10]=4
y[11]=2
y[12]=4
y[13]=4
y[14]=2
y[15]=1
y[16]=1
y[17]=1
y[18]=5
y[19]=3
y[20]=2
y[21]=0
y[22]=4
y[23]=2
y[24]=4
y[25]=0
y[26]=0
y[27]=5
y[28]=1
y[29]=0
y[30]=3
y[31]=3
y[32]=4
y[33]=2
y[34]=3
y[35]=2
y[36]=1
y[37]=5
y[38]=5
y[39]=1
y[40]=4
y[41]=3
