data/solutions/recovery/wellformed/moderate/flexible/wellformed_moderate_instance89/46.log

Log started (V12.6.3.0) Fri Apr 20 19:35:18 2018

New value for default parallel thread count: 1

Problem '/tmp/tmpVgxxSN.pyomo.lp' read.
Read time = 0.00 sec. (0.13 ticks)

Problem name         : /tmp/tmpVgxxSN.pyomo.lp
Objective sense      : Minimize
Variables            :     260  [Nneg: 1,  Binary: 252,  General Integer: 7]
Objective nonzeros   :       1
Linear constraints   :      97  [Less: 48,  Equal: 49]
  Nonzeros           :    8917
  RHS nonzeros       :      85

Variables            : Min LB: 0.000000         Max UB: 1.000000       
Objective nonzeros   : Min   : 1.000000         Max   : 1.000000       
Linear constraints   :
  Nonzeros           : Min   : 1.000000         Max   : 1980.000       
  RHS nonzeros       : Min   : 1.000000         Max   : 5.000000       
Tried aggregator 2 times.
MIP Presolve eliminated 42 rows and 6 columns.
Aggregator did 7 substitutions.
Reduced MIP has 48 rows, 247 columns, and 693 nonzeros.
Reduced MIP has 246 binaries, 1 generals, 0 SOSs, and 0 indicators.
Presolve time = 0.00 sec. (2.20 ticks)
Found incumbent of value 43363.000000 after 0.00 sec. (2.69 ticks)
Probing time = 0.00 sec. (0.26 ticks)
Cover probing fixed 0 vars, tightened 4 bounds.
Tried aggregator 1 time.
Reduced MIP has 48 rows, 247 columns, and 693 nonzeros.
Reduced MIP has 246 binaries, 1 generals, 0 SOSs, and 0 indicators.
Presolve time = 0.00 sec. (0.41 ticks)
Probing time = 0.00 sec. (0.18 ticks)
Clique table members: 41.
MIP emphasis: balance optimality and feasibility.
MIP search method: dynamic search.
Parallel mode: none, using 1 thread.
Root relaxation solution time = 0.00 sec. (0.21 ticks)

        Nodes                                         Cuts/
   Node  Left     Objective  IInf  Best Integer    Best Bound    ItCnt     Gap

*     0+    0                        43363.0000     1980.0000            95.43%
      0     0     7227.1667     9    43363.0000     7227.1667       12   83.33%
*     0+    0                         7877.0000     7227.1667             8.25%
      0     0     7228.0000    14     7877.0000       Cuts: 8       24    8.24%
*     0+    0                         7698.0000     7228.0000             6.11%
      0     0     7228.0000    13     7698.0000      Cuts: 11       53    6.11%
      0     0     7228.0000    15     7698.0000       Cuts: 9       73    6.11%
*     0+    0                         7669.0000     7228.0000             5.75%
*     0+    0                         7469.0000     7228.0000             3.23%
      0     2     7228.0000    13     7469.0000     7228.0000       73    3.23%
Elapsed time = 0.02 sec. (15.89 ticks, tree = 0.01 MB, solutions = 5)
*   100+   84                         7439.0000     7228.0000             2.84%
*   437   256      integral     0     7437.0000     7228.0000     2797    2.81%
*   693   383      integral     0     7435.0000     7228.0000     4697    2.78%
*  1345   368      integral     0     7298.0000     7228.0000     8689    0.96%
*  1445+  396                         7294.0000     7228.0000             0.90%
*  1500   412      integral     0     7290.0000     7228.0000    10041    0.85%
*  1600+  318                         7267.0000     7228.0000             0.54%
   1772   316     7228.0000    10     7267.0000     7228.0000    12248    0.54%
   1773   316     7228.0000    10     7267.0000     7228.0000    12248    0.54%
   1774   316     7228.0000    10     7267.0000     7228.0000    12249    0.54%
   1775   315     7241.2000    11     7267.0000     7228.0000    12251    0.54%
   1776   315     7242.0000     9     7267.0000     7228.0000    12253    0.54%
   1777   316     7242.0000     8     7267.0000     7228.0000    12254    0.54%
   1778   301        cutoff           7267.0000     7228.0000    12257    0.54%
   1779   300     7242.0000     7     7267.0000     7228.0000    12260    0.54%
*  2312+  203                         7261.0000     7228.0000             0.45%
*  2412+  274                         7256.0000     7228.0000             0.39%
*  2612+  415                         7250.0000     7228.0000             0.30%
   2712   493     7230.8972    17     7250.0000     7228.0000    16392    0.30%
Elapsed time = 0.93 sec. (993.41 ticks, tree = 0.14 MB, solutions = 15)
   5662  2465     7228.0000    27     7250.0000     7228.0000    53764    0.30%
   5663  2466     7228.0000    29     7250.0000     7228.0000    53770    0.30%
   5664  2467     7228.0000    29     7250.0000     7228.0000    53786    0.30%
   5665  2468     7228.0000    26     7250.0000     7228.0000    53825    0.30%
   5666  2469     7228.0000    31     7250.0000     7228.0000    53833    0.30%
   5667  2470     7228.0000    31     7250.0000     7228.0000    53904    0.30%
   5668  2471     7228.0000    27     7250.0000     7228.0000    53914    0.30%
   5669  2472     7228.0000    28     7250.0000     7228.0000    53937    0.30%
   5670  2473     7228.0000    28     7250.0000     7228.0000    53940    0.30%
   5671  2474     7228.0000    28     7250.0000     7228.0000    53943    0.30%
Elapsed time = 1.70 sec. (1949.93 ticks, tree = 0.75 MB, solutions = 15)
   7972  3841        cutoff           7250.0000     7228.0000    98737    0.30%
   7973  3840        cutoff           7250.0000     7228.0000    98843    0.30%
   7974  3839        cutoff           7250.0000     7228.0000    98982    0.30%
   7975  3838        cutoff           7250.0000     7228.0000    99208    0.30%
   7976  3837        cutoff           7250.0000     7228.0000    99266    0.30%
   7977  3836        cutoff           7250.0000     7228.0000    99495    0.30%
   7978  3835        cutoff           7250.0000     7228.0000    99599    0.30%
   7979  3834        cutoff           7250.0000     7228.0000    99684    0.30%
   7980  3833        cutoff           7250.0000     7228.0000    99900    0.30%
   7981  3832        cutoff           7250.0000     7228.0000   100080    0.30%
Elapsed time = 2.43 sec. (2937.21 ticks, tree = 1.10 MB, solutions = 15)
   9349  4453    infeasible           7250.0000     7228.0000   139247    0.30%
   9350  4452        cutoff           7250.0000     7228.0000   139332    0.30%
   9351  4453     7228.0000    33     7250.0000     7228.0000   139399    0.30%
   9352  4454     7228.0000    23     7250.0000     7228.0000   139400    0.30%
   9353  4455     7228.0000    40     7250.0000     7228.0000   139525    0.30%
   9354  4456     7242.0000    22     7250.0000     7228.0000   139729    0.30%
   9355  4457     7242.0000    24     7250.0000     7228.0000   139762    0.30%
   9356  4457     7248.4951    15     7250.0000     7228.0000   139806    0.30%
   9357  4456        cutoff           7250.0000     7228.0000   139808    0.30%
   9358  4457     7232.1708    40     7250.0000     7228.0000   140050    0.30%
Elapsed time = 3.10 sec. (3909.63 ticks, tree = 1.37 MB, solutions = 15)
  10494  4870        cutoff           7250.0000     7228.0000   176829    0.30%
  10495  4869        cutoff           7250.0000     7228.0000   176911    0.30%
  10496  4868        cutoff           7250.0000     7228.0000   176978    0.30%
  10497  4867        cutoff           7250.0000     7228.0000   176999    0.30%
  10498  4866    infeasible           7250.0000     7228.0000   177038    0.30%
  10499  4865        cutoff           7250.0000     7228.0000   177116    0.30%
  10500  4864        cutoff           7250.0000     7228.0000   177150    0.30%
  10501  4863        cutoff           7250.0000     7228.0000   177167    0.30%
  10502  4862    infeasible           7250.0000     7228.0000   177167    0.30%
  10503  4861    infeasible           7250.0000     7228.0000   177167    0.30%
Elapsed time = 3.75 sec. (4870.28 ticks, tree = 2.13 MB, solutions = 15)
* 11392+ 4882                         7243.0000     7228.0000             0.21%
  11392  4884     7228.2439    29     7243.0000     7228.0000   210577    0.21%
  11393  4883        cutoff           7243.0000     7228.0000   210737    0.21%
  11394  4882        cutoff           7243.0000     7228.0000   210903    0.21%
  11395  4883     7241.2000    34     7243.0000     7228.0000   211114    0.21%
  11396  4882        cutoff           7243.0000     7228.0000   211157    0.21%
  11397  4883     7241.2000    22     7243.0000     7228.0000   211175    0.21%
  11398  4884     7241.2000    23     7243.0000     7228.0000   211206    0.21%
  11399  4885     7241.2000    23     7243.0000     7228.0000   211207    0.21%
  11400  4886     7241.2000    27     7243.0000     7228.0000   211221    0.21%
  11401  4887     7241.2000    20     7243.0000     7228.0000   211226    0.21%
Elapsed time = 4.71 sec. (6081.60 ticks, tree = 2.35 MB, solutions = 16)
  12127  5002     7235.2902    44     7243.0000     7228.0000   246900    0.21%
  12128  5003     7235.2902    45     7243.0000     7228.0000   246904    0.21%
  12129  5004     7235.9543    42     7243.0000     7228.0000   246912    0.21%
  12130  5005     7236.0174    40     7243.0000     7228.0000   246916    0.21%
  12131  5004        cutoff           7243.0000     7228.0000   246919    0.21%
  12132  5003        cutoff           7243.0000     7228.0000   246922    0.21%
  12133  5004     7228.0000    30     7243.0000     7228.0000   246986    0.21%
  12134  5005     7228.0000    34     7243.0000     7228.0000   247043    0.21%
  12135  5006     7228.0000    27     7243.0000     7228.0000   247047    0.21%
  12136  5007     7228.0000    23     7243.0000     7228.0000   247051    0.21%
Elapsed time = 5.34 sec. (7043.09 ticks, tree = 2.54 MB, solutions = 16)
* 12482+ 4803                         7242.0000     7228.0000             0.19%
* 12489  4581      integral     0     7240.0000     7228.0000   257016    0.17%
* 12502  3834      integral     0     7236.0000     7228.0000   257439    0.11%
  12914  3796        cutoff           7236.0000     7228.0000   281420    0.11%
  12915  3795        cutoff           7236.0000     7228.0000   281452    0.11%
  12916  3794        cutoff           7236.0000     7228.0000   281549    0.11%
  12917  3793        cutoff           7236.0000     7228.0000   281662    0.11%
  12918  3792        cutoff           7236.0000     7228.0000   281869    0.11%
  12919  3791        cutoff           7236.0000     7228.0000   281994    0.11%
  12920  3790        cutoff           7236.0000     7228.0000   282089    0.11%
  12921  3789        cutoff           7236.0000     7228.0000   282223    0.11%
  12922  3788        cutoff           7236.0000     7228.0000   282338    0.11%
  12923  3787        cutoff           7236.0000     7228.0000   282427    0.11%
Elapsed time = 5.99 sec. (8021.18 ticks, tree = 2.08 MB, solutions = 19)
  13544  3779     7228.0000    35     7236.0000     7228.0000   317357    0.11%
  13545  3780     7228.0000    25     7236.0000     7228.0000   317372    0.11%
  13546  3781     7228.0000    33     7236.0000     7228.0000   317500    0.11%
  13547  3782     7228.0000    35     7236.0000     7228.0000   317584    0.11%
  13548  3783     7228.0000    31     7236.0000     7228.0000   317606    0.11%
  13549  3784     7228.0000    44     7236.0000     7228.0000   317704    0.11%
  13550  3785     7228.0000    41     7236.0000     7228.0000   317707    0.11%
  13551  3786     7228.0000    37     7236.0000     7228.0000   317713    0.11%
  13552  3787     7228.0000    35     7236.0000     7228.0000   317715    0.11%
  13553  3788     7228.0000    32     7236.0000     7228.0000   317725    0.11%
Elapsed time = 6.62 sec. (8985.90 ticks, tree = 2.12 MB, solutions = 19)
  14282  3943     7228.0000    29     7236.0000     7228.0000   350541    0.11%
  14283  3944     7228.0000    27     7236.0000     7228.0000   350545    0.11%
  14284  3945     7228.0000    21     7236.0000     7228.0000   350548    0.11%
  14285  3946     7228.0000    36     7236.0000     7228.0000   350672    0.11%
  14286  3947     7228.0000    30     7236.0000     7228.0000   350677    0.11%
  14287  3948     7232.6223    32     7236.0000     7228.0000   350852    0.11%
  14288  3949     7232.9887    33     7236.0000     7228.0000   350861    0.11%
  14289  3949     7233.1734    37     7236.0000     7228.0000   350871    0.11%
  14290  3948        cutoff           7236.0000     7228.0000   350875    0.11%
  16906  4422     7228.0000    37     7236.0000     7228.0000   451228    0.11%
Elapsed time = 9.17 sec. (12801.17 ticks, tree = 3.16 MB, solutions = 19)
  19545  4682        cutoff           7236.0000     7228.0000   572995    0.11%
  19546  4681        cutoff           7236.0000     7228.0000   573084    0.11%
  19547  4680        cutoff           7236.0000     7228.0000   573175    0.11%
  19548  4681     7228.9367    44     7236.0000     7228.0000   573239    0.11%
  19549  4681     7228.9367    46     7236.0000     7228.0000   573241    0.11%
  19550  4682     7228.9893    43     7236.0000     7228.0000   573246    0.11%
  19551  4683     7229.7646    43     7236.0000     7228.0000   573267    0.11%
  19552  4684     7229.8492    44     7236.0000     7228.0000   573272    0.11%
  19553  4685     7229.8611    44     7236.0000     7228.0000   573274    0.11%
  19554  4686     7230.0696    47     7236.0000     7228.0000   573283    0.11%
Elapsed time = 11.74 sec. (16625.56 ticks, tree = 3.32 MB, solutions = 19)
  25645  1744        cutoff           7236.0000     7232.1858   689677    0.05%
  25646  1743        cutoff           7236.0000     7232.1861   689689    0.05%
  25647  1742        cutoff           7236.0000     7232.1875   689696    0.05%
  25648  1741        cutoff           7236.0000     7232.1891   689707    0.05%
  25649  1740        cutoff           7236.0000     7232.1898   689716    0.05%
  25650  1739        cutoff           7236.0000     7232.1924   689721    0.05%
  25651  1738        cutoff           7236.0000     7232.1929   689724    0.05%
  25652  1737        cutoff           7236.0000     7232.1938   689727    0.05%
  25653  1736        cutoff           7236.0000     7232.1953   689732    0.05%
  25654  1735        cutoff           7236.0000     7232.1959   689736    0.05%
Elapsed time = 14.33 sec. (20443.03 ticks, tree = 1.22 MB, solutions = 19)

Cover cuts applied:  132
Mixed integer rounding cuts applied:  47
Gomory fractional cuts applied:  4

Root node processing (before b&c):
  Real time             =    0.02 sec. (15.91 ticks)
Sequential b&c:
  Real time             =   14.77 sec. (21060.59 ticks)
                          ------------
Total (root+branch&cut) =   14.79 sec. (21076.49 ticks)

Solution pool: 19 solutions saved.

MIP - Integer optimal solution:  Objective =  7.2360000000e+03
Solution time =   14.79 sec.  Iterations = 700518  Nodes = 27471
Deterministic time = 21076.49 ticks  (1425.20 ticks/sec)


Incumbent solution written to file '/tmp/tmp5BMvr5.cplex.sol'.
